
Gurobi 9.5.2 (mac64[arm]) logging started Fri Apr 28 18:52:11 2023

Set parameter LogFile to value "Java/output/iterative_model_2_machine/scenario_seed_2_nJob_40_machineCount_2/mip_increment_1/log.txt"
Gurobi Optimizer version 9.5.2 build v9.5.2rc0 (mac64[arm])
Thread count: 8 physical cores, 8 logical processors, using up to 8 threads
Optimize a model with 1961 rows, 12324 columns and 137919 nonzeros
Model fingerprint: 0x954984e7
Variable types: 0 continuous, 12324 integer (12324 binary)
Coefficient statistics:
  Matrix range     [1e+00, 2e+02]
  Objective range  [2e+01, 3e+06]
  Bounds range     [1e+00, 1e+00]
  RHS range        [1e+00, 1e+00]
Found heuristic solution: objective 1.637053e+07
Presolve removed 191 rows and 1562 columns
Presolve time: 0.15s
Presolved: 1770 rows, 10762 columns, 120823 nonzeros
Variable types: 0 continuous, 10762 integer (10762 binary)
Found heuristic solution: objective 1.236141e+07

Root relaxation: objective 2.285421e+04, 2745 iterations, 0.11 seconds (0.25 work units)

    Nodes    |    Current Node    |     Objective Bounds      |     Work
 Expl Unexpl |  Obj  Depth IntInf | Incumbent    BestBd   Gap | It/Node Time

     0     0 22854.2101    0   91 1.2361e+07 22854.2101   100%     -    0s
H    0     0                    3096080.0000 22854.2101  99.3%     -    0s
H    0     0                    1388272.0000 22854.2101  98.4%     -    0s
H    0     0                    1270176.0000 22854.2101  98.2%     -    0s
H    0     0                    443775.99993 23503.6245  94.7%     -    0s
     0     0 23503.6245    0  124 443776.000 23503.6245  94.7%     -    0s
H    0     0                    443743.99993 23503.6245  94.7%     -    0s
H    0     0                    441984.00000 23503.6245  94.7%     -    0s
     0     0 23503.6245    0  124 441984.000 23503.6245  94.7%     -    0s
H    0     0                    408032.00000 23503.6245  94.2%     -    0s
     0     0 24734.6776    0  165 408032.000 24734.6776  93.9%     -    0s
H    0     0                    407344.00000 24734.6776  93.9%     -    0s
     0     0 24878.9120    0  163 407344.000 24878.9120  93.9%     -    0s
     0     0 24879.6519    0  167 407344.000 24879.6519  93.9%     -    0s
     0     0 24879.6519    0  166 407344.000 24879.6519  93.9%     -    0s
     0     0 31042.0236    0  179 407344.000 31042.0236  92.4%     -    1s
     0     0 31042.0236    0   92 407344.000 31042.0236  92.4%     -    1s
H    0     0                    407248.00000 31042.0236  92.4%     -    1s
H    0     0                    402512.00000 31042.0236  92.3%     -    1s
     0     0 31042.0236    0  176 402512.000 31042.0236  92.3%     -    1s
H    0     0                    156336.00000 31042.0236  80.1%     -    1s
     0     0 31894.0493    0  184 156336.000 31894.0493  79.6%     -    1s
     0     0 32345.1059    0  191 156336.000 32345.1059  79.3%     -    1s
     0     0 32346.7521    0  194 156336.000 32346.7521  79.3%     -    1s
     0     0 38298.8184    0  173 156336.000 38298.8184  75.5%     -    1s
     0     0 42084.5578    0  187 156336.000 42084.5578  73.1%     -    1s
     0     0 42680.1064    0  192 156336.000 42680.1064  72.7%     -    1s
     0     0 42681.2705    0  191 156336.000 42681.2705  72.7%     -    1s
H    0     0                    146032.00000 42681.2705  70.8%     -    2s
     0     0 57574.3700    0  182 146032.000 57574.3700  60.6%     -    2s
H    0     0                    139616.00000 57574.3700  58.8%     -    2s
     0     0 69690.9951    0  187 139616.000 69690.9951  50.1%     -    2s
     0     0 70063.9780    0  188 139616.000 70063.9780  49.8%     -    2s
     0     0 70116.0557    0  191 139616.000 70116.0557  49.8%     -    2s
     0     0 70116.0557    0  192 139616.000 70116.0557  49.8%     -    2s
     0     0 78390.2912    0  209 139616.000 78390.2912  43.9%     -    2s
H    0     0                    138144.00000 78390.2912  43.3%     -    2s
H    0     0                    135584.00000 78390.2912  42.2%     -    2s
     0     0 80784.6758    0  208 135584.000 80784.6758  40.4%     -    2s
     0     0 80875.3840    0  210 135584.000 80875.3840  40.4%     -    2s
     0     0 80878.1714    0  212 135584.000 80878.1714  40.3%     -    2s
     0     0 81855.5454    0  200 135584.000 81855.5454  39.6%     -    2s
H    0     0                    135408.00000 81855.5454  39.5%     -    2s
H    0     0                    119536.00000 81855.5454  31.5%     -    2s
     0     0 81891.6688    0  197 119536.000 81891.6688  31.5%     -    2s
     0     0 82973.9686    0  185 119536.000 82973.9686  30.6%     -    2s
     0     0 82973.9686    0  103 119536.000 82973.9686  30.6%     -    2s
     0     0 82973.9686    0  173 119536.000 82973.9686  30.6%     -    3s
     0     0 82973.9686    0  138 119536.000 82973.9686  30.6%     -    3s
     0     0 83618.2984    0  155 119536.000 83618.2984  30.0%     -    3s
     0     0 84100.9422    0  161 119536.000 84100.9422  29.6%     -    3s
     0     0 84155.9443    0  168 119536.000 84155.9443  29.6%     -    3s
     0     0 84169.7797    0  172 119536.000 84169.7797  29.6%     -    3s
     0     0 84169.8752    0  172 119536.000 84169.8752  29.6%     -    3s
     0     0 85411.3971    0  189 119536.000 85411.3971  28.5%     -    3s
     0     0 85853.6628    0  205 119536.000 85853.6628  28.2%     -    3s
     0     0 85873.0406    0  212 119536.000 85873.0406  28.2%     -    3s
     0     0 89802.1883    0  207 119536.000 89802.1883  24.9%     -    3s
     0     0 90646.4703    0  192 119536.000 90646.4703  24.2%     -    3s
     0     0 90851.0005    0  192 119536.000 90851.0005  24.0%     -    3s
     0     0 90882.6759    0  190 119536.000 90882.6759  24.0%     -    3s
     0     0 92341.1145    0  190 119536.000 92341.1145  22.8%     -    3s
     0     0 92999.5813    0  175 119536.000 92999.5813  22.2%     -    3s
     0     0 93114.4358    0  196 119536.000 93114.4358  22.1%     -    3s
     0     0 93143.1496    0  178 119536.000 93143.1496  22.1%     -    3s
     0     0 94608.2234    0  170 119536.000 94608.2234  20.9%     -    3s
     0     0 94687.1407    0  171 119536.000 94687.1407  20.8%     -    3s
     0     0 94687.2678    0  174 119536.000 94687.2678  20.8%     -    3s
     0     0 94993.4827    0  198 119536.000 94993.4827  20.5%     -    3s
     0     0 94993.4827    0  186 119536.000 94993.4827  20.5%     -    3s
     0     2 95091.4809    0  184 119536.000 95091.4809  20.4%     -    4s
H    7    14                    96368.000000 95783.4961  0.61%   199    4s

Cutting planes:
  Cover: 11
  Clique: 45
  MIR: 80
  StrongCG: 44
  GUB cover: 110
  Zero half: 9
  RLT: 5

Explored 28 nodes (32970 simplex iterations) in 4.28 seconds (7.72 work units)
Thread count was 8 (of 8 available processors)

Solution count 10: 96368 119536 135408 ... 407248

Optimal solution found (tolerance 1.00e-04)
Best objective 9.636800000000e+04, best bound 9.636800000000e+04, gap 0.0000%

Gurobi 9.5.2 (mac64[arm]) logging started Fri Apr 28 18:52:16 2023

Set parameter LogFile to value "Java/output/iterative_model_2_machine/scenario_seed_2_nJob_40_machineCount_2/mip_increment_1/log.txt"
Gurobi Optimizer version 9.5.2 build v9.5.2rc0 (mac64[arm])
Thread count: 8 physical cores, 8 logical processors, using up to 8 threads
Optimize a model with 1959 rows, 8494 columns and 96605 nonzeros
Model fingerprint: 0xeea65d22
Variable types: 0 continuous, 8494 integer (8494 binary)
Coefficient statistics:
  Matrix range     [1e+00, 2e+02]
  Objective range  [2e+02, 4e+05]
  Bounds range     [1e+00, 1e+00]
  RHS range        [1e+00, 1e+00]
Found heuristic solution: objective 2231420.0000
Presolve removed 677 rows and 1416 columns
Presolve time: 0.11s
Presolved: 1282 rows, 7078 columns, 79934 nonzeros
Variable types: 0 continuous, 7078 integer (7078 binary)
Found heuristic solution: objective 1926136.0000

Root relaxation: objective 7.919917e+04, 949 iterations, 0.02 seconds (0.04 work units)

    Nodes    |    Current Node    |     Objective Bounds      |     Work
 Expl Unexpl |  Obj  Depth IntInf | Incumbent    BestBd   Gap | It/Node Time

     0     0 79199.1707    0   72 1926136.00 79199.1707  95.9%     -    0s
H    0     0                    1542068.0000 79199.1707  94.9%     -    0s
H    0     0                    1015148.0000 79199.1707  92.2%     -    0s
H    0     0                    828896.00000 79199.1707  90.4%     -    0s
H    0     0                    627888.00000 79199.1707  87.4%     -    0s
H    0     0                    293656.00000 79595.0154  72.9%     -    0s
H    0     0                    290852.00000 79595.0154  72.6%     -    0s
     0     0 79595.0154    0  110 290852.000 79595.0154  72.6%     -    0s
H    0     0                    286892.00000 79704.6872  72.2%     -    0s
     0     0 79704.6872    0  108 286892.000 79704.6872  72.2%     -    0s
     0     0 79730.1923    0  106 286892.000 79730.1923  72.2%     -    0s
H    0     0                    285424.00000 80815.3089  71.7%     -    0s
     0     0 80815.3089    0  129 285424.000 80815.3089  71.7%     -    0s
H    0     0                    256224.00000 81285.9971  68.3%     -    0s
H    0     0                    254212.00000 81285.9971  68.0%     -    0s
     0     0 81285.9971    0  118 254212.000 81285.9971  68.0%     -    0s
     0     0 81307.3297    0  115 254212.000 81307.3297  68.0%     -    0s
     0     0 81309.3325    0  111 254212.000 81309.3325  68.0%     -    0s
     0     0 81309.3325    0  111 254212.000 81309.3325  68.0%     -    0s
H    0     0                    235788.00000 81309.3325  65.5%     -    0s
H    0     0                    165764.00000 81309.3325  50.9%     -    0s
H    0     0                    149244.00000 82558.2623  44.7%     -    0s
     0     0 82558.2623    0  135 149244.000 82558.2623  44.7%     -    0s
H    0     0                    139616.00000 82558.2623  40.9%     -    0s
     0     0 83191.3505    0  131 139616.000 83191.3505  40.4%     -    0s
     0     0 83426.3255    0  135 139616.000 83426.3255  40.2%     -    0s
     0     0 83439.0535    0  137 139616.000 83439.0535  40.2%     -    0s
     0     0 83494.2369    0  138 139616.000 83494.2369  40.2%     -    0s
     0     0 83497.2075    0  139 139616.000 83497.2075  40.2%     -    0s
     0     0 83497.8271    0  140 139616.000 83497.8271  40.2%     -    0s
     0     0 85957.7655    0  156 139616.000 85957.7655  38.4%     -    0s
     0     0 87200.9910    0  161 139616.000 87200.9910  37.5%     -    0s
H    0     0                    115704.00000 88071.3208  23.9%     -    0s
     0     0 88071.3208    0  163 115704.000 88071.3208  23.9%     -    0s
     0     0 88485.7381    0  168 115704.000 88485.7381  23.5%     -    1s
     0     0 88570.9306    0  169 115704.000 88570.9306  23.5%     -    1s
     0     0 88576.1799    0  162 115704.000 88576.1799  23.4%     -    1s
     0     0 88576.1799    0  166 115704.000 88576.1799  23.4%     -    1s
     0     0 89369.1750    0  162 115704.000 89369.1750  22.8%     -    1s
     0     0 89369.1750    0   72 115704.000 89369.1750  22.8%     -    1s
     0     0 89369.1750    0  144 115704.000 89369.1750  22.8%     -    1s
     0     0 89369.1750    0  154 115704.000 89369.1750  22.8%     -    1s
     0     0 89369.1750    0  166 115704.000 89369.1750  22.8%     -    1s
     0     0 89382.4127    0  174 115704.000 89382.4127  22.7%     -    1s
     0     0 89393.9726    0  172 115704.000 89393.9726  22.7%     -    1s
     0     0 89396.1869    0  171 115704.000 89396.1869  22.7%     -    1s
     0     0 90250.4307    0  172 115704.000 90250.4307  22.0%     -    1s
     0     0 90432.2878    0  164 115704.000 90432.2878  21.8%     -    1s
     0     0 90477.5536    0  174 115704.000 90477.5536  21.8%     -    1s
     0     0 90477.7334    0  170 115704.000 90477.7334  21.8%     -    1s
     0     0 92143.8895    0  147 115704.000 92143.8895  20.4%     -    1s
H    0     0                    105144.00000 92143.8895  12.4%     -    1s
     0     0 93593.3067    0  148 105144.000 93593.3067  11.0%     -    1s
     0     0 93737.1325    0  168 105144.000 93737.1325  10.8%     -    1s
     0     0 93790.4795    0  175 105144.000 93790.4795  10.8%     -    1s
     0     0 93803.1343    0  167 105144.000 93803.1343  10.8%     -    1s
     0     0 93808.0436    0  183 105144.000 93808.0436  10.8%     -    1s
     0     0 94247.7807    0  154 105144.000 94247.7807  10.4%     -    1s
H    0     0                    103660.00000 94247.7807  9.08%     -    1s
H    0     0                    100612.00000 94247.7807  6.33%     -    1s
     0     0 94465.3460    0  174 100612.000 94465.3460  6.11%     -    1s
     0     0 94466.0000    0   16 100612.000 94466.0000  6.11%     -    1s
     0     0 94514.4173    0  186 100612.000 94514.4173  6.06%     -    1s
H    0     0                    94720.000000 94514.4173  0.22%     -    1s
     0     0 94532.1823    0  154 94720.0000 94532.1823  0.20%     -    1s
     0     0 94532.6574    0  175 94720.0000 94532.6574  0.20%     -    1s
     0     0 94591.2324    0  129 94720.0000 94591.2324  0.14%     -    1s
     0     0 94591.2324    0   11 94720.0000 94591.2324  0.14%     -    1s
H    0     0                    94612.000000 94591.2324  0.02%     -    1s
     0     0 94591.2324    0   11 94612.0000 94591.2324  0.02%     -    1s

Explored 1 nodes (10721 simplex iterations) in 1.98 seconds (3.29 work units)
Thread count was 8 (of 8 available processors)

Solution count 10: 94612 94720 100612 ... 235788

Optimal solution found (tolerance 1.00e-04)
Best objective 9.461200000000e+04, best bound 9.461200000000e+04, gap 0.0000%

Gurobi 9.5.2 (mac64[arm]) logging started Fri Apr 28 18:52:18 2023

Set parameter LogFile to value "Java/output/iterative_model_2_machine/scenario_seed_2_nJob_40_machineCount_2/mip_increment_1/log.txt"
Gurobi Optimizer version 9.5.2 build v9.5.2rc0 (mac64[arm])
Thread count: 8 physical cores, 8 logical processors, using up to 8 threads
Optimize a model with 1964 rows, 5687 columns and 60014 nonzeros
Model fingerprint: 0x5800590e
Variable types: 0 continuous, 5687 integer (5687 binary)
Coefficient statistics:
  Matrix range     [1e+00, 2e+02]
  Objective range  [6e+01, 5e+04]
  Bounds range     [1e+00, 1e+00]
  RHS range        [1e+00, 1e+00]
Presolve removed 1197 rows and 1799 columns
Presolve time: 0.06s
Presolved: 767 rows, 3888 columns, 40046 nonzeros
Variable types: 0 continuous, 3888 integer (3886 binary)

Root relaxation: objective 2.557575e+04, 729 iterations, 0.01 seconds (0.02 work units)

    Nodes    |    Current Node    |     Objective Bounds      |     Work
 Expl Unexpl |  Obj  Depth IntInf | Incumbent    BestBd   Gap | It/Node Time

     0     0 25575.7521    0   36          - 25575.7521      -     -    0s
H    0     0                    58073.000000 25575.7521  56.0%     -    0s
H    0     0                    44453.000000 25575.7521  42.5%     -    0s
H    0     0                    43260.000000 25575.7521  40.9%     -    0s
H    0     0                    39191.000000 25575.7521  34.7%     -    0s
H    0     0                    36736.000000 25748.0209  29.9%     -    0s
     0     0 25748.0209    0   63 36736.0000 25748.0209  29.9%     -    0s
H    0     0                    35997.000000 25748.0209  28.5%     -    0s
H    0     0                    29805.000000 25802.7712  13.4%     -    0s
     0     0 25802.7712    0   66 29805.0000 25802.7712  13.4%     -    0s
     0     0 25809.3724    0   66 29805.0000 25809.3724  13.4%     -    0s
     0     0 25954.9817    0   80 29805.0000 25954.9817  12.9%     -    0s
H    0     0                    26355.000000 25954.9817  1.52%     -    0s
     0     0 25956.1546    0   76 26355.0000 25956.1546  1.51%     -    0s
     0     0 25956.1546    0   76 26355.0000 25956.1546  1.51%     -    0s
     0     0 26038.0221    0   57 26355.0000 26038.0221  1.20%     -    0s
     0     0 26038.0221    0   41 26355.0000 26038.0221  1.20%     -    0s
     0     0 26069.7038    0   56 26355.0000 26069.7038  1.08%     -    0s
     0     0 26110.3430    0   61 26355.0000 26110.3430  0.93%     -    0s
     0     0 26112.1007    0   47 26355.0000 26112.1007  0.92%     -    0s
     0     0 26355.0000    0   63 26355.0000 26355.0000  0.00%     -    0s

Cutting planes:
  Gomory: 4
  Cover: 4
  Clique: 5
  MIR: 9
  GUB cover: 5
  Inf proof: 1
  Zero half: 1
  RLT: 2

Explored 1 nodes (2278 simplex iterations) in 0.36 seconds (0.53 work units)
Thread count was 8 (of 8 available processors)

Solution count 8: 26355 29805 35997 ... 58073

Optimal solution found (tolerance 1.00e-04)
Best objective 2.635500000000e+04, best bound 2.635500000000e+04, gap 0.0000%

Gurobi 9.5.2 (mac64[arm]) logging started Fri Apr 28 18:52:18 2023

Set parameter LogFile to value "Java/output/iterative_model_2_machine/scenario_seed_2_nJob_40_machineCount_2/mip_increment_1/log.txt"
Gurobi Optimizer version 9.5.2 build v9.5.2rc0 (mac64[arm])
Thread count: 8 physical cores, 8 logical processors, using up to 8 threads
Optimize a model with 2092 rows, 37288 columns and 416252 nonzeros
Model fingerprint: 0x173dd348
Variable types: 0 continuous, 37288 integer (37288 binary)
Coefficient statistics:
  Matrix range     [1e+00, 2e+02]
  Objective range  [2e+00, 3e+06]
  Bounds range     [1e+00, 1e+00]
  RHS range        [1e+00, 1e+00]

Warning: Completing partial solution with 37170 unfixed non-continuous variables out of 37288
User MIP start produced solution with objective 202355 (0.03s)
Loaded user MIP start with objective 202355

Presolve removed 106 rows and 4735 columns
Presolve time: 0.40s
Presolved: 1986 rows, 32553 columns, 365199 nonzeros
Variable types: 0 continuous, 32553 integer (32551 binary)

Root relaxation: objective 9.532207e+04, 22845 iterations, 2.38 seconds (5.81 work units)

    Nodes    |    Current Node    |     Objective Bounds      |     Work
 Expl Unexpl |  Obj  Depth IntInf | Incumbent    BestBd   Gap | It/Node Time

     0     0 95322.0736    0  396 202355.000 95322.0736  52.9%     -    3s
H    0     0                    200391.00000 95322.0736  52.4%     -    3s
H    0     0                    195743.00000 95322.0736  51.3%     -    3s
     0     0 95716.5701    0  484 195743.000 95716.5701  51.1%     -    5s
H    0     0                    195731.00000 95716.5701  51.1%     -    5s
H    0     0                    195250.00000 95716.5701  51.0%     -    5s
     0     0 95754.6418    0  521 195250.000 95754.6418  51.0%     -    7s
     0     0 95762.0488    0  524 195250.000 95762.0488  51.0%     -    7s
     0     0 95762.0708    0  533 195250.000 95762.0708  51.0%     -    8s
     0     0 96337.7886    0  596 195250.000 96337.7886  50.7%     -   11s
H    0     0                    195193.00000 96337.7886  50.6%     -   11s
     0     0 96547.1772    0  616 195193.000 96547.1772  50.5%     -   17s
     0     0 96570.4669    0  639 195193.000 96570.4669  50.5%     -   18s
     0     0 96584.1881    0  629 195193.000 96584.1881  50.5%     -   19s
     0     0 96586.2608    0  625 195193.000 96586.2608  50.5%     -   19s
     0     0 96586.2666    0  621 195193.000 96586.2666  50.5%     -   19s
     0     0 99059.9210    0  647 195193.000 99059.9210  49.3%     -   25s
     0     0 99954.6128    0  679 195193.000 99954.6128  48.8%     -   29s
     0     0 100046.655    0  694 195193.000 100046.655  48.7%     -   31s
     0     0 100046.892    0  697 195193.000 100046.892  48.7%     -   31s
     0     0 105640.304    0  651 195193.000 105640.304  45.9%     -   37s
     0     0 108781.834    0  692 195193.000 108781.834  44.3%     -   41s
H    0     0                    194951.00000 109214.696  44.0%     -   44s
     0     0 109214.696    0  703 194951.000 109214.696  44.0%     -   45s
     0     0 109220.485    0  724 194951.000 109220.485  44.0%     -   45s
     0     0 109227.540    0  718 194951.000 109227.540  44.0%     -   46s
     0     0 109228.458    0  737 194951.000 109228.458  44.0%     -   46s
     0     0 116356.783    0  701 194951.000 116356.783  40.3%     -   52s
H    0     0                    194771.00000 116356.783  40.3%     -   52s
     0     0 128095.742    0  700 194771.000 128095.742  34.2%     -   56s
     0     0 131269.953    0  719 194771.000 131269.953  32.6%     -   62s
     0     0 131398.548    0  733 194771.000 131398.548  32.5%     -   63s
     0     0 131399.807    0  737 194771.000 131399.807  32.5%     -   64s
     0     0 134762.176    0  773 194771.000 134762.176  30.8%     -   67s
     0     0 134762.176    0  423 194771.000 134762.176  30.8%     -   71s
H    0     0                    194766.00000 134762.176  30.8%     -   71s
H    0     0                    194706.00000 134762.176  30.8%     -   74s
     0     0 134762.176    0  563 194706.000 134762.176  30.8%     -   74s
     0     0 134762.176    0  647 194706.000 134762.176  30.8%     -   78s
     0     0 137662.668    0  688 194706.000 137662.668  29.3%     -   81s
     0     0 140708.900    0  671 194706.000 140708.900  27.7%     -   83s
     0     0 141789.219    0  695 194706.000 141789.219  27.2%     -   85s
     0     0 141789.514    0  698 194706.000 141789.514  27.2%     -   85s
     0     0 147187.535    0  733 194706.000 147187.535  24.4%     -   88s
H    0     0                    191154.00000 147187.535  23.0%     -   88s
     0     0 148109.710    0  729 191154.000 148109.710  22.5%     -   90s
     0     0 148180.154    0  731 191154.000 148180.154  22.5%     -   91s
     0     0 148184.953    0  737 191154.000 148184.953  22.5%     -   91s
     0     0 153442.551    0  753 191154.000 153442.551  19.7%     -   95s
     0     0 154208.008    0  733 191154.000 154208.008  19.3%     -   98s
     0     0 154316.909    0  763 191154.000 154316.909  19.3%     -   99s
     0     0 154364.600    0  779 191154.000 154364.600  19.2%     -  100s
     0     0 154373.961    0  771 191154.000 154373.961  19.2%     -  100s
     0     0 157923.728    0  796 191154.000 157923.728  17.4%     -  104s
     0     0 158603.284    0  821 191154.000 158603.284  17.0%     -  107s
     0     0 158640.519    0  853 191154.000 158640.519  17.0%     -  108s
     0     0 158651.632    0  823 191154.000 158651.632  17.0%     -  109s
     0     0 161024.539    0  829 191154.000 161024.539  15.8%     -  112s
     0     0 161515.298    0  849 191154.000 161515.298  15.5%     -  115s
     0     0 161544.342    0  872 191154.000 161544.342  15.5%     -  117s
     0     0 162494.925    0  842 191154.000 162494.925  15.0%     -  123s
H    0     0                    191150.00000 162494.925  15.0%     -  123s
     0     0 162618.483    0  847 191150.000 162618.483  14.9%     -  125s
     0     0 162749.651    0  916 191150.000 162749.651  14.9%     -  126s
     0     0 162780.569    0  911 191150.000 162780.569  14.8%     -  127s
H    0     0                    191120.00000 162780.569  14.8%     -  131s
     0     0 165048.094    0  911 191120.000 165048.094  13.6%     -  132s
H    0     0                    187292.00000 165048.094  11.9%     -  135s
     0     0 165641.649    0  892 187292.000 165641.649  11.6%     -  139s
     0     0 165707.393    0  916 187292.000 165707.393  11.5%     -  140s
     0     0 165720.762    0  916 187292.000 165720.762  11.5%     -  141s
     0     0 167889.794    0  869 187292.000 167889.794  10.4%     -  144s
     0     0 168193.959    0  876 187292.000 168193.959  10.2%     -  148s
     0     0 168418.386    0  914 187292.000 168418.386  10.1%     -  150s
     0     0 168544.999    0  910 187292.000 168544.999  10.0%     -  152s
     0     0 168550.101    0  920 187292.000 168550.101  10.0%     -  153s
     0     0 169801.617    0  883 187292.000 169801.617  9.34%     -  156s
H    0     0                    187172.00000 169801.617  9.28%     -  156s
     0     0 170382.153    0  881 187172.000 170382.153  8.97%     -  159s
     0     0 170431.742    0  885 187172.000 170431.742  8.94%     -  161s
     0     0 173642.393    0  857 187172.000 173642.393  7.23%     -  166s
     0     0 173999.989    0  924 187172.000 173999.989  7.04%     -  169s
     0     0 174114.966    0  915 187172.000 174114.966  6.98%     -  170s
     0     0 174137.316    0  948 187172.000 174137.316  6.96%     -  171s
     0     0 176253.395    0  978 187172.000 176253.395  5.83%     -  177s
H    0     0                    187106.00000 176253.395  5.80%     -  178s
     0     0 176900.103    0  990 187106.000 176900.103  5.45%     -  183s
     0     0 176945.334    0  955 187106.000 176945.334  5.43%     -  185s
     0     0 179444.298    0  970 187106.000 179444.298  4.09%     -  192s
     0     0 179697.480    0  958 187106.000 179697.480  3.96%     -  196s
     0     0 179845.119    0  983 187106.000 179845.119  3.88%     -  197s
     0     0 179860.048    0  988 187106.000 179860.048  3.87%     -  198s
     0     0 180827.985    0 1000 187106.000 180827.985  3.36%     -  203s
     0     0 180827.985    0  436 187106.000 180827.985  3.36%     -  205s
H    0     0                    187101.00000 180827.985  3.35%     -  205s
     0     0 180827.985    0  585 187101.000 180827.985  3.35%     -  207s
     0     0 180827.985    0  680 187101.000 180827.985  3.35%     -  210s
     0     0 180827.985    0  747 187101.000 180827.985  3.35%     -  213s
     0     0 180827.985    0  855 187101.000 180827.985  3.35%     -  219s
     0     0 181000.189    0  857 187101.000 181000.189  3.26%     -  222s
     0     0 181223.016    0  927 187101.000 181223.016  3.14%     -  224s
     0     0 181253.541    0  915 187101.000 181253.541  3.13%     -  225s
     0     0 181259.914    0  884 187101.000 181259.914  3.12%     -  225s
     0     0 182722.221    0  885 187101.000 182722.221  2.34%     -  228s
     0     0 182933.478    0  925 187101.000 182933.478  2.23%     -  229s
     0     0 182952.589    0  953 187101.000 182952.589  2.22%     -  229s
     0     0 183191.479    0  982 187101.000 183191.479  2.09%     -  231s
     0     0 183191.479    0  973 187101.000 183191.479  2.09%     -  232s
H    0     0                    186984.00000 183193.180  2.03%     -  234s
     0     2 183193.180    0  973 186984.000 183193.180  2.03%     -  235s
     3     7 185536.139    2  796 186984.000 183379.762  1.93% 10747  246s
     7    11     cutoff    3      186984.000 183628.678  1.79% 15642  251s
    22    10     cutoff    5      186984.000 184148.801  1.52% 15878  262s
    38    13 185078.032    6  494 186984.000 184292.726  1.44% 12992  265s
    46    22     cutoff    7      186984.000 184295.136  1.44% 12892  270s
    65    38 185604.178    7  870 186984.000 184295.136  1.44% 11035  275s
H   69    38                    185754.00000 184295.136  0.79% 10434  275s
   108    59     cutoff   10      185754.000 184295.136  0.79%  7840  284s
H  115    59                    185703.00000 184295.136  0.76%  7435  284s
H  119    59                    184584.00000 184295.136  0.16%  7194  284s
   124    45     cutoff   10      184584.000 184501.713  0.04%  7034  286s
H  154    64                    184551.00000 184501.713  0.03%  5775  287s
H  213    78                    184541.00000 184501.713  0.02%  4386  289s
H  217    78                    184539.00000 184501.713  0.02%  4322  289s
H  220    78                    184538.00000 184501.713  0.02%  4290  289s
H  225    78                    184537.00000 184501.713  0.02%  4209  289s
H  277    99                    184529.00000 184501.713  0.01%  3521  290s
   469   126     cutoff   15      184529.000 184503.037  0.01%  2249  297s
   735   236 184512.380   12  196 184529.000 184505.691  0.01%  1516  301s
* 1243   376              34    184528.00000 184509.317  0.01%   954  304s

Cutting planes:
  Gomory: 1
  Cover: 38
  Implied bound: 2
  Clique: 155
  MIR: 284
  StrongCG: 166
  GUB cover: 281
  Zero half: 8

Explored 1395 nodes (2145004 simplex iterations) in 304.27 seconds (849.85 work units)
Thread count was 8 (of 8 available processors)

Solution count 10: 184528 184529 184537 ... 185754

Optimal solution found (tolerance 1.00e-04)
Best objective 1.845280000000e+05, best bound 1.845100000000e+05, gap 0.0098%
